####################################################################################################
# MATERIAL PARAMETERS   units in SI grams and milimeters and seconds
####################################################################################################
variable E equal 2.3E11 # Young’s modulus   g/mms2
variable nu equal 0.314 # Poisson ratio
variable rho equal 1.1E-2 # initial mass density   g/mm3
variable q1 equal 100 # standard artificial viscosity linear coefficient
variable q2 equal 100 # standard artificial viscosity quadratic coefficient
variable hg equal 0.0 # hourglass control coefficient
variable cp equal 3E8 # heat capacity of material   mm2/s3K
variable k equal 3E6 # Thermal Conductivity of material   gmm/s3K
variable alpha equal 1E-5 # thermal expansion of material
variable T0 equal 500 # rest temperature of material   K
variable EF equal 1E-5 # strain failure          #this is higher than the actual value I caclulated of about 5E-4
variable HM equal 0 # heat per unit mass   mm2/s3  
####################################################################################################
# INITIALIZE LAMMPS
####################################################################################################
dimension 2
units si
boundary sm sm p # simulation box boundaries
atom_style spooff
atom_modify map array 
comm_modify vel yes
neigh_modify every 100 delay 0 check yes # re-build neighbor list every 10 steps
newton off
####################################################################################################
# CREATE INITIAL GEOMETRY
####################################################################################################
variable l0 equal 0.2 # lattice spacing for creating particles
variable l2 equal 2*${l0} 
lattice sq2 ${l2}
region box block -2 2 -8 8 -0.1 0.1 units box
region particles block -2 2 -8 8 -0.1 0.1 units box
create_box 1 box
create_atoms 1 region particles
region left block -2 2 -8 -7 -0.1 0.1 units box
region right block -2 2 7 8 -0.1 0.1 units box
region main block -2 2 -7 7 -0.1 0.1 units box
group left region left
group main region main
group right region right
group tlsph type 1
####################################################################################################
# DISCRETIZATION PARAMETERS
####################################################################################################
variable h equal 3.01*${l0} # SPH smoothing kernel radius
variable vol_one equal (${l2}^2)/2 # volume of one particle -- assuming unit thickness
variable skin equal ${h} # Verlet list range
variable energy equal 300*(${rho}*${vol_one}*${cp}) # spacing adjusted temperature
neighbor ${skin} bin
set group all smd/contact/radius 0.05
set group all volume ${vol_one}
set group all smd/mass/density ${rho}
set group all diameter ${h} # set SPH kernel radius
set group all sph/e ${energy}

variable pull equal 1E5
fix vel_left_fix left spooff/setvel 0 0 0
fix vel_right_fix right spooff/setvel 0 v_pull 0


####################################################################################################
# INTERACTION PHYSICS / MATERIAL MODEL
####################################################################################################
pair_style spooff/tlsph
pair_coeff 1 1 *COMMON ${rho} ${E} ${nu} ${q1} ${q2} ${hg} ${cp} ${k} ${HM} &
*STRENGTH_LINEAR_PLASTIC 1E10 0 &
*EOS_THERMAL ${T0} ${alpha} &
*FAILURE_MAX_PLASTIC_STRAIN ${EF} &
*END

#pair_style hybrid/overlay spooff/hertz 1.5 spooff/tlsph
#pair_coeff 1 1 spooff/hertz 10
#pair_coeff 1 1 spooff/tlsph *COMMON ${rho} ${E} ${nu} ${q1} ${q2} ${hg} ${cp} ${k} ${HM} &
#*STRENGTH_LINEAR &
#*EOS_THERMAL ${T0} ${alpha} &
#*FAILURE_MAX_PAIRWISE_STRAIN ${EF} &
#*END
#pair_coeff 2 1 spooff/hertz 10
#pair_coeff 2 2 spooff/hertz 10



####################################################################################################
# TIME INTEGRATION
####################################################################################################
fix dtfix tlsph spooff/adjust_dt 0.01 # dynamically adjust time increment every step   - I turned this off as it doesn't account for the temperature time step limit.
fix integration_fix tlsph spooff/integrate_tlsph
####################################################################################################
# SPECIFY TRAJECTORY OUTPUT
####################################################################################################
compute S all spooff/tlsph/stress # Cauchy stress tensor
compute E all spooff/tlsph/strain # Green-Lagrange strain tensor
compute nn all spooff/tlsph/num/neighs # number of neighbors for each particle
compute e all spooff/internal/energy
compute p all spooff/potential/energy
compute vol all spooff/vol

compute dam all spooff/damage
compute t all spooff/temperature 
compute Q all spooff/heatflux 
compute EP all spooff/plastic/strain
dump dump_id all custom 200 dump.LAMMPS id type x y z vx vy vz &
c_S[1] c_S[2] c_S[4] c_nn &
c_E[1] c_E[2] c_E[4] &
c_dam[1] c_dam[2] c_dam[3] c_dam[4] &
c_e c_p c_t c_vol c_EP &
c_Q[1] c_Q[2] c_Q[3]
dump_modify dump_id first yes
####################################################################################################
# RUN SIMULATION
####################################################################################################
timestep 0.01    # fixed this based on time step limit calc for thermal sim.
run 40000